50
18709

185 122
910 74
979 47
85 649
505 860
228 511
460 306
229 962
486 379
693 754
617 141
498 451
598 438
1000 620
934 656
264 537
537 966
495 980
791 18
663 620
193 711
279 304
631 961
62 232
663 169
680 32
551 421
891 586
944 409
936 257
878 986
520 839
480 243
157 370
613 93
116 390
270 833
794 957
291 776
434 400
552 41
359 523
417 280
128 115
978 737
643 837
51 786
791 995
228 72
39 5
